NAME        
OBJSENSE
  MAX
ROWS
 N  Obj     
 G  r0      
 L  r1      
COLUMNS
    MARK0000  'MARKER'                 'INTORG'
    c0        Obj       60
    c0        r0        1
    c0        r1        1
    c1        Obj       100
    c1        r0        1
    c1        r1        1
    c2        Obj       120
    c2        r0        1
    c2        r1        1
    MARK0001  'MARKER'                 'INTEND'
RHS
    RHS_V     r0        1
    RHS_V     r1        2
BOUNDS
 LI BOUND     c0        0
 LI BOUND     c1        0
 LI BOUND     c2        0
ENDATA
